# CELL file written 22:51:53 (GMT-0.0) 5th March 2018 from run sim

%BLOCK lattice_cart
   ANG
       5.16410000000000        0.00000000000000        0.00000000000000    
       0.00000000000000        11.6462911748762      -0.100000000000000E-14
       0.00000000000000        23.2925823497525        40.3439360692533    
%ENDBLOCK lattice_cart

%BLOCK cell_constraints
      0   0   0
      0   0   0
%ENDBLOCK cell_constraints

%BLOCK positions_frac
   Zr             0.750000484888007       0.128484058195723       0.512956928626830
   Zr             0.749999933540689       0.205422005853810       0.570731181113479
   Zr             0.749999865184641       0.511537526276279       0.551439480872557
   Zr             0.750000382863248       0.819596868927619       0.532179922878594
   Zr             0.749999704519269       0.282631955028401       0.627952326301969
   Zr             0.749999866187196       0.589196190786125       0.608896745063831
   Zr             0.749999986000498       0.897507335552849       0.589878553875846
   Zr             0.749999808133187       0.051647892333116       0.704939697828296
   Zr             0.749999918425306       0.359230945571621       0.685780944292716
   Zr             0.750000231455612       0.666572557963658       0.666690158365937
   Zr             0.750000022006352       0.975169136871743       0.647352710861137
   Zr             0.750000225812407       0.128484922247291       0.762956537184567
   Zr             0.749999745117578       0.435299463390127       0.743845067972057
   Zr             0.749999866003310       0.742957034317777       0.724429108592459
   Zr             0.750000174466637       0.205422744928186       0.820731269738476
   Zr             0.749999998884048       0.511538233067569       0.801439320317338
   Zr             0.750000025814139       0.819595696665685       0.782180246083312
   Zr             0.750000602470771       0.282633481682225       0.877952181004124
   Zr             0.750000174538532       0.589194607201878       0.858896712638954
   Zr             0.750000003377708       0.897506521190996       0.839878392130771
   Zr             0.749999340143859       0.051645627801868       0.954939961541428
   Zr             0.750000237737292       0.359230964933430       0.935780587190658
   Zr             0.750000142820759       0.666571480173166       0.916690112982919
   Zr             0.750000314520582       0.975170440228080       0.897352628736843
   I              0.749999925341522       0.435299063704433       0.993844694564319
   I              0.749999629881762       0.742957401735169       0.974429139083054
   Zr             0.250000149026051       0.257043981343856       0.525570727834529
   Zr             0.250000063266199       0.564698608947741       0.506154684631832
   Zr             0.250000005764900       0.024831844658455       0.602647084361135
   Zr             0.250000089437396       0.333427085049133       0.583309746254362
   Zr             0.249999741492692       0.640769051781586       0.564219114647879
   Zr             0.249999660796108       0.948355814460808       0.545059856582993
   Zr             0.250000051345469       0.102494268547254       0.660121165180925
   Zr             0.249999778633531       0.410803258660109       0.641103620074222
   Zr             0.249999895833998       0.717368400557378       0.622048129255054
   Zr             0.249999995228470       0.180406810301253       0.717819533382605
   Zr             0.249999775112697       0.488460250916228       0.698560842996199
   Zr             0.249999828630986       0.794578616051246       0.679268554974995
   Zr             0.249999799688582       0.257044452750674       0.775570450006472
   Zr             0.249999996362600       0.564697742146458       0.756155581194272
   Zr             0.250000172916761       0.871517674704028       0.737042943570250
   Zr             0.250000075234267       0.024832040860549       0.852647051556912
   Zr             0.249999836157050       0.333427435124669       0.833309992560362
   Zr             0.250000140260776       0.640768169591680       0.814219157641092
   Zr             0.249999772218315       0.948357002406608       0.795059828013130
   Zr             0.250000246685517       0.102494556894612       0.910121253876577
   Zr             0.250000210888355       0.410804024926588       0.891103649372668
   Zr             0.249999997319928       0.717365802270276       0.872048233409838
   Zr             0.249999380937627       0.180406063511799       0.967819316564162
   Zr             0.249999846292384       0.488460070122511       0.948560768579042
   Zr             0.250000094086067       0.794579003693401       0.929268981253607
   Zr             0.250001028740603       0.871517193792880       0.987043123609559
   Zr             0.750000563355723       0.128483318727199       0.012956329569044
   Zr             0.749999663701899       0.205420647285706       0.070731488242919
   Zr             0.750000036993452       0.511540312524221       0.051439119877987
   Zr             0.749999467732171       0.819594008056745       0.032180156618311
   Zr             0.749999548240836       0.282633389079088       0.127952326688041
   Zr             0.750000163816607       0.589195835361498       0.108896183285207
   Zr             0.750000092554207       0.897505163209640       0.089878560157696
   Zr             0.749999943502584       0.051645211384502       0.204939972379672
   Zr             0.749999804103167       0.359230054015091       0.185780740274562
   Zr             0.749999925645832       0.666571391350123       0.166689929766080
   Zr             0.749999643249706       0.975169614626661       0.147353079852758
   Zr             0.750000190789524       0.128481792839658       0.262956578241719
   Zr             0.750000442517790       0.435299202938799       0.243844558385763
   Zr             0.749999796899215       0.742957652317257       0.224429198072046
   Zr             0.750000164807908       0.205418880223622       0.320731438706056
   Zr             0.749999769112684       0.511542077184455       0.301438695959801
   Zr             0.750000196021304       0.819593824613874       0.282180437020268
   Zr             0.750000010549711       0.282632176645231       0.377952604899433
   Zr             0.750000145164983       0.589197668088814       0.358896641831529
   Zr             0.750000500464494       0.897505376562178       0.339878613071566
   Zr             0.750000702640463       0.051645885092442       0.454940162315672
   Zr             0.750000278597154       0.359230894719456       0.435780957755901
   Zr             0.749999726971415       0.666571801449946       0.416690464917149
   Zr             0.750000285009135       0.975167118333153       0.397352838981571
   Zr             0.750000097925848       0.435300235225610       0.493844985651620
   Zr             0.749999752474309       0.742955478838605       0.474429418520371
   Zr             0.249999401542353       0.257042215873374       0.025570711106397
   Zr             0.250000229964653       0.564700894675920       0.006155277602430
   Zr             0.249999733070460       0.024830538157257       0.102647326979705
   Zr             0.250000402484052       0.333428147818466       0.083310075333585
   Zr             0.250000060473709       0.640768624524431       0.064219324004237
   Zr             0.249999700017778       0.948353721388938       0.045059647287960
   Zr             0.249999748582213       0.102494051108385       0.160121666594447
   Zr             0.250000224868029       0.410803504097376       0.141103789034488
   Zr             0.249999651456548       0.717364935995249       0.122047989824653
   Zr             0.250000338409801       0.180405025379293       0.217819578178869
   Zr             0.250000216903332       0.488459652690259       0.198560888589509
   Zr             0.249999301824977       0.794579552638859       0.179268799259034
   Zr             0.249999934479358       0.257041320694342       0.275570696633445
   Zr             0.249999749434787       0.564701738383030       0.256154988571357
   Zr             0.249999585018106       0.871517341590939       0.237043223126128
   Zr             0.250000284345596       0.024828620558934       0.352647535451317
   Zr             0.250000015034214       0.333427107724460       0.333310163449462
   Zr             0.250000051179086       0.640769628855841       0.314219233511708
   Zr             0.249999662175738       0.948353097510586       0.295060113167868
   Zr             0.249999605077862       0.102494471319801       0.410121562396558
   Zr             0.250000143859991       0.410804374897818       0.391104044582193
   Zr             0.250000614807493       0.717367777816132       0.372047587920566
   Zr             0.249999283405635       0.180404860048234       0.467819779354577
   Zr             0.250000460892954       0.488461603662710       0.448560684743646
   Zr             0.250000629911199       0.794577594555877       0.429268599208685
   Zr             0.249999815445723       0.871517206639275       0.487043231817263
%ENDBLOCK positions_frac

FIX_COM : true

%BLOCK species_pot
   Zr      3|2.1|7|8|9|40U:50:41:42
%ENDBLOCK species_pot

SYMMETRY_TOL :     0.001000

%BLOCK symmetry_ops
# Symm. op. 1       E
          1.000000000000000       0.000000000000000       0.000000000000000
          0.000000000000000       1.000000000000000       0.000000000000000
          0.000000000000000       0.000000000000000       1.000000000000000
          0.000000000000000       0.000000000000000       0.000000000000000
%ENDBLOCK symmetry_ops

%BLOCK kpoint_list
         -0.400000000000000       0.000000000000000       0.000000000000000       0.133333333333333
         -0.200000000000000      -0.333333333333333       0.000000000000000       0.133333333333333
         -0.200000000000000       0.000000000000000       0.000000000000000       0.133333333333333
          0.000000000000000       0.000000000000000       0.000000000000000       0.066666666666667
          0.000000000000000       0.333333333333333       0.000000000000000       0.133333333333333
          0.200000000000000      -0.333333333333333       0.000000000000000       0.133333333333333
          0.400000000000000      -0.333333333333333       0.000000000000000       0.133333333333333
          0.400000000000000       0.333333333333333       0.000000000000000       0.133333333333333
%ENDBLOCK kpoint_list

%BLOCK bs_kpoint_list
         -0.400000000000000       0.000000000000000       0.000000000000000       0.133333333333333
         -0.200000000000000      -0.333333333333333       0.000000000000000       0.133333333333333
         -0.200000000000000       0.000000000000000       0.000000000000000       0.133333333333333
          0.000000000000000       0.000000000000000       0.000000000000000       0.066666666666667
          0.000000000000000       0.333333333333333       0.000000000000000       0.133333333333333
          0.200000000000000      -0.333333333333333       0.000000000000000       0.133333333333333
          0.400000000000000      -0.333333333333333       0.000000000000000       0.133333333333333
          0.400000000000000       0.333333333333333       0.000000000000000       0.133333333333333
%ENDBLOCK bs_kpoint_list

%BLOCK spectral_kpoint_list
         -0.400000000000000       0.000000000000000       0.000000000000000       0.133333333333333
         -0.200000000000000      -0.333333333333333       0.000000000000000       0.133333333333333
         -0.200000000000000       0.000000000000000       0.000000000000000       0.133333333333333
          0.000000000000000       0.000000000000000       0.000000000000000       0.066666666666667
          0.000000000000000       0.333333333333333       0.000000000000000       0.133333333333333
          0.200000000000000      -0.333333333333333       0.000000000000000       0.133333333333333
          0.400000000000000      -0.333333333333333       0.000000000000000       0.133333333333333
          0.400000000000000       0.333333333333333       0.000000000000000       0.133333333333333
%ENDBLOCK spectral_kpoint_list

%BLOCK optics_kpoint_list
         -0.400000000000000       0.000000000000000       0.000000000000000       0.133333333333333
         -0.200000000000000      -0.333333333333333       0.000000000000000       0.133333333333333
         -0.200000000000000       0.000000000000000       0.000000000000000       0.133333333333333
          0.000000000000000       0.000000000000000       0.000000000000000       0.066666666666667
          0.000000000000000       0.333333333333333       0.000000000000000       0.133333333333333
          0.200000000000000      -0.333333333333333       0.000000000000000       0.133333333333333
          0.400000000000000      -0.333333333333333       0.000000000000000       0.133333333333333
          0.400000000000000       0.333333333333333       0.000000000000000       0.133333333333333
%ENDBLOCK optics_kpoint_list

%BLOCK elnes_kpoint_list
         -0.400000000000000       0.000000000000000       0.000000000000000       0.133333333333333
         -0.200000000000000      -0.333333333333333       0.000000000000000       0.133333333333333
         -0.200000000000000       0.000000000000000       0.000000000000000       0.133333333333333
          0.000000000000000       0.000000000000000       0.000000000000000       0.066666666666667
          0.000000000000000       0.333333333333333       0.000000000000000       0.133333333333333
          0.200000000000000      -0.333333333333333       0.000000000000000       0.133333333333333
          0.400000000000000      -0.333333333333333       0.000000000000000       0.133333333333333
          0.400000000000000       0.333333333333333       0.000000000000000       0.133333333333333
%ENDBLOCK elnes_kpoint_list

%BLOCK magres_kpoint_list
         -0.400000000000000       0.000000000000000       0.000000000000000       0.133333333333333
         -0.200000000000000      -0.333333333333333       0.000000000000000       0.133333333333333
         -0.200000000000000       0.000000000000000       0.000000000000000       0.133333333333333
          0.000000000000000       0.000000000000000       0.000000000000000       0.066666666666667
          0.000000000000000       0.333333333333333       0.000000000000000       0.133333333333333
          0.200000000000000      -0.333333333333333       0.000000000000000       0.133333333333333
          0.400000000000000      -0.333333333333333       0.000000000000000       0.133333333333333
          0.400000000000000       0.333333333333333       0.000000000000000       0.133333333333333
%ENDBLOCK magres_kpoint_list

%BLOCK supercell_kpoint_list
          0.000000000000000       0.000000000000000       0.000000000000000       1.000000000000000
%ENDBLOCK supercell_kpoint_list

%BLOCK phonon_kpoint_list
         -0.400000000000000       0.000000000000000       0.000000000000000       0.133333333333333
         -0.200000000000000      -0.333333333333333       0.000000000000000       0.133333333333333
         -0.200000000000000       0.000000000000000       0.000000000000000       0.133333333333333
          0.000000000000000       0.000000000000000       0.000000000000000       0.066666666666667
          0.000000000000000       0.333333333333333       0.000000000000000       0.133333333333333
          0.200000000000000      -0.333333333333333       0.000000000000000       0.133333333333333
          0.400000000000000      -0.333333333333333       0.000000000000000       0.133333333333333
          0.400000000000000       0.333333333333333       0.000000000000000       0.133333333333333
%ENDBLOCK phonon_kpoint_list

%BLOCK phonon_fine_kpoint_list
         -0.400000000000000       0.000000000000000       0.000000000000000       0.133333333333333
         -0.200000000000000      -0.333333333333333       0.000000000000000       0.133333333333333
         -0.200000000000000       0.000000000000000       0.000000000000000       0.133333333333333
          0.000000000000000       0.000000000000000       0.000000000000000       0.066666666666667
          0.000000000000000       0.333333333333333       0.000000000000000       0.133333333333333
          0.200000000000000      -0.333333333333333       0.000000000000000       0.133333333333333
          0.400000000000000      -0.333333333333333       0.000000000000000       0.133333333333333
          0.400000000000000       0.333333333333333       0.000000000000000       0.133333333333333
%ENDBLOCK phonon_fine_kpoint_list

