%block lattice_cart
       6.463200000000000        0.000000000000000        0.000000000000000
      -3.231599999999998        5.597295389739584        0.000000000000000
       0.000000000000001        0.000000000000001       10.295000000000000
%endblock lattice_cart

%block positions_abs
Zr          1.736431515895477        0.951635203586591        4.099595222797502
Zr          0.086270826518108        1.978245103178070        1.379759820588825
Zr          1.793405553029213        1.210682377728551        9.110607052471602
Zr          0.011025091057221        2.096046506313614        6.600730120245708
Zr          5.135068082925272        0.934844696904697        3.916414713855807
Zr          3.326761176102317        2.061612143739174        1.327736886124519
Zr          4.852487152587504        1.146829900862672        9.307048888470117
Zr          3.480935900925187        1.904142298808191        6.460981997995210
Zr          0.159129671414274        3.971783125728588        3.952850720548440
Zr         -1.579308886760789        4.862797895816458        1.502513081704293
Zr          0.299334987040744        4.004390107399189        9.142353985214502
Zr         -1.349196854395105        4.894002855887960        6.624189250099143
Zr          3.278071424036012        3.863151454952960        4.097418161863538
Zr          1.683444903702330        4.939135439935830        1.306301174506689
Zr          3.471818323765883        3.947451001537870        9.032417203219726
Zr          1.742607423520276        4.667309047868406        6.513579386214567
%endblock positions_abs

symmetry_generate: False
fix_all_cell: True
