%block lattice_cart
       5.164100007883973        0.000000000000000        0.000000000000000
       0.000000000000000        8.546041322916878        0.000000000000000
       2.582050003941987       34.184165291667526       44.766533325175146
%endblock lattice_cart

%block positions_abs
Zr          5.103286592447898       18.833790071969087       22.788865261671678
Zr          5.233236816870419       21.346436639302897       24.898089069798989
Zr          5.005035472195527       24.493103286483596       23.930758415081552
Zr          5.227391327094236       29.305786701371364       28.116882800543262
Zr          5.165789793313595       23.803698427342226       26.998558908760646
Zr          5.207316665332694       26.888539529924490       25.977030924652812
Zr          5.183825610293520       23.235167999341865       30.208550223436486
Zr          5.199509872516590       26.229498510668702       29.142284940570345
Zr          5.197593596764004       25.640292842770027       32.352952692847637
Zr          5.149037145348720       28.680692481540323       31.271956670775566
Zr          5.147043024782041       33.548392283866214       35.531859968121985
Zr          5.171842444657134       28.081954127097578       34.467254633610771
Zr          5.128685632301753       31.127935096554303       33.374163218099966
Zr          5.111243300781310       36.027870703818650       37.631783231395950
Zr          5.147592002159772       30.531948173155314       36.560795952402124
Zr          5.123558136784219       38.481378913215316       39.742919392024767
Zr          5.162846034646901       32.976558827445430       38.741060772259793
Zr          5.150789909499593       37.873598538780463       42.933812195068349
Zr          5.173639459389868       32.400486534320983       41.956151978158843
Zr          5.105293928963555       35.446301445146659       40.827832911118996
Zr          4.938808351879072       34.863517598349546       43.805461419682032
Zr          2.739355748615835       20.672264083161316       23.355586615593015
Zr          2.644214262209758       28.688098536826352       26.395365814556268
Zr          2.491925462636444       23.157343969955011       25.189884918731213
Zr          2.585294570664187       26.285459825989751       24.204230284713589
Zr          2.620395902584318       22.582795142794321       28.434067627854571
Zr          2.612077381377063       25.581384295907842       27.409519519116689
Zr          2.621705748459436       25.010781188564067       30.622156465774445
Zr          2.577571057388157       28.056846011945385       29.518485271516134
Zr          2.561574422849394       32.940226637641082       33.764729005389576
Zr          2.582602280272279       27.483020075672705       32.719781476412166
Zr          2.530233178713875       30.535359105221495       31.612571516568142
Zr          2.575064376873201       35.371440611311392       35.830710420462758
Zr          2.585036944464593       29.916757210248811       34.796678240082379
Zr          2.533284991510415       29.304831198341013       37.929598731208401
Zr          2.573799255264938       32.351178776149055       36.949659570792079
Zr          2.538440129534433       37.261397656701917       41.132401499687418
Zr          2.573128376348322       31.798883741444730       40.100697068682713
Zr          2.575761459136558       34.799098485814440       39.032856660613433
Zr          2.656315042045403       39.658924600908094       43.101804941253320
Zr          2.442436758072553       34.216361572547271       42.252364129706613
Zr          2.634300427775290       36.800538978180604       44.369902900423114
Zr          3.819001540722788        6.835912273319195        0.541230882514651
Zr          3.721024807333195        9.666970685957860        1.677156158048620
Zr          3.946936079687116        4.229256765664233        2.518675968173358
Zr          3.899386538348087        7.292089155228711        3.636421577548226
Zr          3.880528206466146       10.391968618511155        4.741359053136972
Zr          3.928309259132314        4.900554460200713        5.734848872451970
Zr          3.898898836210441        7.931725244574571        6.811343652124458
Zr          3.887512385656784       10.972044344624759        7.841411534393588
Zr          3.858648078794527       14.034732058865192        8.900918379962585
Zr          3.911556538572281        8.516214374696434        9.969159898888812
Zr          3.851462770915929       11.582753749152889       11.002033177053182
Zr          3.881370606486319       14.632385106537892       12.091210414441575
Zr          3.871655028718448       17.694339446003951       13.141636540494241
Zr          3.909466688862536       12.210015716366060       14.149124614193099
Zr          3.887026934461387       15.239696377705176       15.274419978555130
Zr          3.931874957093489       18.303742507144477       16.277981441567995
Zr          3.863730951599314       21.354720711205456       17.372301082889656
Zr          3.812506582753242       15.888090432777281       18.448365894167285
Zr          3.896195652367051       18.927828832695454       19.445869366976108
Zr          3.941188334769745       21.948570263422614       20.576892559876342
Zr          3.627905850415276       16.506283512957580       21.402823828129925
Zr          1.507789427755733        4.938949722877398        0.914684176697038
Zr          1.291357343375160        7.961822582620459        1.816190336266795
Zr          1.209556404380870        2.426092185955413        2.922391791597297
Zr          1.290838191261846        5.475745339867852        3.929040602886652
Zr          1.317729688704752        8.496073525081496        5.033537424884535
Zr          1.304015985946125       11.591205434181187        6.093151681274707
Zr          1.285152378929894        6.138371495049515        7.136244674936586
Zr          1.329427911803989        9.144258538365065        8.235159853409229
Zr          1.240826421847933       12.207756013590902        9.234903430664456
Zr          1.293549506474984       15.216331523037301       10.344685708314797
Zr          1.325911621295980        9.726078475383796       11.347879433192411
Zr          1.309825594737777       12.797519219621080       12.422328981497934
Zr          1.298871576209727       15.870720324827881       13.547674099827519
Zr          1.347189375988500       18.933863923104347       14.539079654956771
Zr          1.310231146083422       13.411886119231946       15.591905087974633
Zr          1.299894163268790       16.462706482710367       16.655165860209550
Zr          1.346773427771095       19.508908014864151       17.639640502591565
Zr          1.257350711457195       22.665684299917970       18.755646720446631
Zr          6.302167813595089       17.125470607140048       19.869927540506371
Zr          1.457685211358015       20.209450100354356       20.666863004051358
Zr          1.439136995360838       23.009948809362090       21.961035956365297
%endblock positions_abs

fix_all_cell = True

kpoint_mp_spacing        = 0.04
