%block lattice_cart
       6.463200000000000        0.000000000000000        0.000000000000000
      -3.231599999999998        5.597295389739584        0.000000000000000
       0.000000000000001        0.000000000000001       10.295000000000000
%endblock lattice_cart

%block positions_abs
Zr          1.615800000000000        0.932882564956598        3.860625000000000
Zr          0.000000000000001        1.865765129913195        1.286875000000000
Zr          1.615800000000001        0.932882564956598        9.008125000000000
Zr          0.000000000000001        1.865765129913195        6.434375000000000
Zr          4.847399999999999        0.932882564956598        3.860625000000000
Zr          3.231600000000000        1.865765129913195        1.286875000000000
Zr          4.847400000000000        0.932882564956598        9.008125000000000
Zr          3.231600000000001        1.865765129913195        6.434375000000000
Zr          0.000000000000001        3.731530259826390        3.860625000000000
Zr         -1.615799999999999        4.664412824782986        1.286875000000000
Zr          0.000000000000002        3.731530259826390        9.008125000000000
Zr         -1.615799999999998        4.664412824782987        6.434375000000000
Zr          3.231600000000001        3.731530259826390        3.860625000000000
Zr          1.615800000000001        4.664412824782986        1.286875000000000
Zr          3.231600000000001        3.731530259826390        9.008125000000000
Zr          1.615800000000002        4.664412824782987        6.434375000000000
%endblock positions_abs
